p cnf 100 210
1 2 3 4 5 0
1 2 3 -4 11 0
1 2 -3 4 10 0
1 2 -3 -4 12 0
1 -2 3 4 6 0
1 -2 3 -4 7 0
1 -2 -3 4 13 0
1 -2 -3 -4 8 0
-1 2 3 4 14 0
-1 2 3 -4 15 0
-1 2 -3 4 16 0
-1 2 -3 -4 17 0
-1 -2 3 4 18 0
-1 -2 3 -4 9 0
19 20 21 22 1 2 3 4 69 0
19 20 21 22 1 2 3 -4 40 0
19 20 21 22 1 2 -3 4 23 0
19 20 21 22 1 2 -3 -4 49 0
19 20 21 22 1 -2 3 4 41 0
19 20 21 22 1 -2 3 -4 75 0
19 20 21 22 1 -2 -3 4 54 0
19 20 21 22 1 -2 -3 -4 82 0
19 20 21 22 -1 2 3 4 61 0
19 20 21 22 -1 2 3 -4 76 0
19 20 21 22 -1 2 -3 4 23 0
19 20 21 22 -1 2 -3 -4 23 0
19 20 21 22 -1 -2 3 4 23 0
19 20 21 22 -1 -2 3 -4 23 0
19 20 21 -22 1 2 3 4 96 0
19 20 21 -22 1 2 3 -4 23 0
19 20 21 -22 1 2 -3 4 23 0
19 20 21 -22 1 2 -3 -4 70 0
19 20 21 -22 1 -2 3 4 38 0
19 20 21 -22 1 -2 3 -4 39 0
19 20 21 -22 1 -2 -3 4 97 0
19 20 21 -22 1 -2 -3 -4 34 0
19 20 21 -22 -1 2 3 4 43 0
19 20 21 -22 -1 2 3 -4 40 0
19 20 21 -22 -1 2 -3 4 86 0
19 20 21 -22 -1 2 -3 -4 42 0
19 20 21 -22 -1 -2 3 4 23 0
19 20 21 -22 -1 -2 3 -4 23 0
19 20 -21 22 1 2 3 4 29 0
19 20 -21 22 1 2 3 -4 55 0
19 20 -21 22 1 2 -3 4 77 0
19 20 -21 22 1 2 -3 -4 35 0
19 20 -21 22 1 -2 3 4 31 0
19 20 -21 22 1 -2 3 -4 57 0
19 20 -21 22 1 -2 -3 4 54 0
19 20 -21 22 1 -2 -3 -4 91 0
19 20 -21 22 -1 2 3 4 43 0
19 20 -21 22 -1 2 3 -4 40 0
19 20 -21 22 -1 2 -3 4 23 0
19 20 -21 22 -1 2 -3 -4 35 0
19 20 -21 22 -1 -2 3 4 23 0
19 20 -21 22 -1 -2 3 -4 23 0
19 20 -21 -22 1 2 3 4 42 0
19 20 -21 -22 1 2 3 -4 78 0
19 20 -21 -22 1 2 -3 4 23 0
19 20 -21 -22 1 2 -3 -4 49 0
19 20 -21 -22 1 -2 3 4 71 0
19 20 -21 -22 1 -2 3 -4 85 0
19 20 -21 -22 1 -2 -3 4 92 0
19 20 -21 -22 1 -2 -3 -4 79 0
19 20 -21 -22 -1 2 3 4 61 0
19 20 -21 -22 -1 2 3 -4 76 0
19 20 -21 -22 -1 2 -3 4 23 0
19 20 -21 -22 -1 2 -3 -4 42 0
19 20 -21 -22 -1 -2 3 4 24 0
19 20 -21 -22 -1 -2 3 -4 25 0
19 -20 21 22 1 2 3 4 72 0
19 -20 21 22 1 2 3 -4 93 0
19 -20 21 22 1 2 -3 4 94 0
19 -20 21 22 1 2 -3 -4 42 0
19 -20 21 22 1 -2 3 4 31 0
19 -20 21 22 1 -2 3 -4 80 0
19 -20 21 22 1 -2 -3 4 36 0
19 -20 21 22 1 -2 -3 -4 91 0
19 -20 21 22 -1 2 3 4 44 0
19 -20 21 22 -1 2 3 -4 62 0
19 -20 21 22 -1 2 -3 4 63 0
19 -20 21 22 -1 2 -3 -4 35 0
19 -20 21 22 -1 -2 3 4 23 0
19 -20 21 22 -1 -2 3 -4 25 0
19 -20 21 -22 1 2 3 4 66 0
19 -20 21 -22 1 2 3 -4 62 0
19 -20 21 -22 1 2 -3 4 77 0
19 -20 21 -22 1 2 -3 -4 73 0
19 -20 21 -22 1 -2 3 4 83 0
19 -20 21 -22 1 -2 3 -4 57 0
19 -20 21 -22 1 -2 -3 4 45 0
19 -20 21 -22 1 -2 -3 -4 26 0
19 -20 21 -22 -1 2 3 4 90 0
19 -20 21 -22 -1 2 3 -4 87 0
19 -20 21 -22 -1 2 -3 4 23 0
19 -20 21 -22 -1 2 -3 -4 35 0
19 -20 21 -22 -1 -2 3 4 23 0
19 -20 21 -22 -1 -2 3 -4 23 0
19 -20 -21 22 1 2 3 4 88 0
19 -20 -21 22 1 2 3 -4 46 0
19 -20 -21 22 1 2 -3 4 77 0
19 -20 -21 22 1 2 -3 -4 84 0
19 -20 -21 22 1 -2 3 4 32 0
19 -20 -21 22 1 -2 3 -4 33 0
19 -20 -21 22 1 -2 -3 4 54 0
19 -20 -21 22 1 -2 -3 -4 91 0
19 -20 -21 22 -1 2 3 4 27 0
19 -20 -21 22 -1 2 3 -4 28 0
19 -20 -21 22 -1 2 -3 4 63 0
19 -20 -21 22 -1 2 -3 -4 42 0
19 -20 -21 22 -1 -2 3 4 24 0
19 -20 -21 22 -1 -2 3 -4 24 0
19 -20 -21 -22 1 2 3 4 58 0
19 -20 -21 -22 1 2 3 -4 78 0
19 -20 -21 -22 1 2 -3 4 94 0
19 -20 -21 -22 1 2 -3 -4 59 0
19 -20 -21 -22 1 -2 3 4 83 0
19 -20 -21 -22 1 -2 3 -4 33 0
19 -20 -21 -22 1 -2 -3 4 97 0
19 -20 -21 -22 1 -2 -3 -4 82 0
19 -20 -21 -22 -1 2 3 4 61 0
19 -20 -21 -22 -1 2 3 -4 40 0
19 -20 -21 -22 -1 2 -3 4 86 0
19 -20 -21 -22 -1 2 -3 -4 23 0
19 -20 -21 -22 -1 -2 3 4 23 0
19 -20 -21 -22 -1 -2 3 -4 23 0
-19 20 21 22 1 2 3 4 74 0
-19 20 21 22 1 2 3 -4 78 0
-19 20 21 22 1 2 -3 4 47 0
-19 20 21 22 1 2 -3 -4 42 0
-19 20 21 22 1 -2 3 4 64 0
-19 20 21 22 1 -2 3 -4 67 0
-19 20 21 22 1 -2 -3 4 100 0
-19 20 21 22 1 -2 -3 -4 52 0
-19 20 21 22 -1 2 3 4 23 0
-19 20 21 22 -1 2 3 -4 23 0
-19 20 21 22 -1 2 -3 4 23 0
-19 20 21 22 -1 2 -3 -4 53 0
-19 20 21 22 -1 -2 3 4 23 0
-19 20 21 22 -1 -2 3 -4 23 0
-19 20 21 -22 1 2 3 4 98 0
-19 20 21 -22 1 2 3 -4 62 0
-19 20 21 -22 1 2 -3 4 89 0
-19 20 21 -22 1 2 -3 -4 35 0
-19 20 21 -22 1 -2 3 4 41 0
-19 20 21 -22 1 -2 3 -4 75 0
-19 20 21 -22 1 -2 -3 4 50 0
-19 20 21 -22 1 -2 -3 -4 91 0
-19 20 21 -22 -1 2 3 4 43 0
-19 20 21 -22 -1 2 3 -4 23 0
-19 20 21 -22 -1 2 -3 4 23 0
-19 20 21 -22 -1 2 -3 -4 23 0
-19 20 21 -22 -1 -2 3 4 23 0
-19 20 21 -22 -1 -2 3 -4 23 0
-19 20 -21 22 1 2 3 4 30 0
-19 20 -21 22 1 2 3 -4 55 0
-19 20 -21 22 1 2 -3 4 77 0
-19 20 -21 22 1 2 -3 -4 95 0
-19 20 -21 22 1 -2 3 4 99 0
-19 20 -21 22 1 -2 3 -4 23 0
-19 20 -21 22 1 -2 -3 4 100 0
-19 20 -21 22 1 -2 -3 -4 48 0
-19 20 -21 22 -1 2 3 4 23 0
-19 20 -21 22 -1 2 3 -4 23 0
-19 20 -21 22 -1 2 -3 4 63 0
-19 20 -21 22 -1 2 -3 -4 23 0
-19 20 -21 22 -1 -2 3 4 23 0
-19 20 -21 22 -1 -2 3 -4 23 0
-19 20 -21 -22 1 2 3 4 81 0
-19 20 -21 -22 1 2 3 -4 23 0
-19 20 -21 -22 1 2 -3 4 23 0
-19 20 -21 -22 1 2 -3 -4 95 0
-19 20 -21 -22 1 -2 3 4 56 0
-19 20 -21 -22 1 -2 3 -4 23 0
-19 20 -21 -22 1 -2 -3 4 60 0
-19 20 -21 -22 1 -2 -3 -4 91 0
-19 20 -21 -22 -1 2 3 4 61 0
-19 20 -21 -22 -1 2 3 -4 23 0
-19 20 -21 -22 -1 2 -3 4 86 0
-19 20 -21 -22 -1 2 -3 -4 23 0
-19 20 -21 -22 -1 -2 3 4 23 0
-19 20 -21 -22 -1 -2 3 -4 23 0
-19 -20 21 22 1 2 3 4 37 0
-19 -20 21 22 1 2 3 -4 23 0
-19 -20 21 22 1 2 -3 4 23 0
-19 -20 21 22 1 2 -3 -4 70 0
-19 -20 21 22 1 -2 3 4 38 0
-19 -20 21 22 1 -2 3 -4 23 0
-19 -20 21 22 1 -2 -3 4 100 0
-19 -20 21 22 1 -2 -3 -4 65 0
-19 -20 21 22 -1 2 3 4 23 0
-19 -20 21 22 -1 2 3 -4 23 0
-19 -20 21 22 -1 2 -3 4 23 0
-19 -20 21 22 -1 2 -3 -4 35 0
-19 -20 21 22 -1 -2 3 4 23 0
-19 -20 21 22 -1 -2 3 -4 23 0
-19 -20 21 -22 1 2 3 4 51 0
-19 -20 21 -22 1 2 3 -4 23 0
-19 -20 21 -22 1 2 -3 4 23 0
-19 -20 21 -22 1 2 -3 -4 23 0
-19 -20 21 -22 1 -2 3 4 23 0
-19 -20 21 -22 1 -2 3 -4 68 0
-19 -20 21 -22 1 -2 -3 4 23 0
-19 -20 21 -22 1 -2 -3 -4 79 0
-19 -20 21 -22 -1 2 3 4 23 0
-19 -20 21 -22 -1 2 3 -4 23 0
-19 -20 21 -22 -1 2 -3 4 23 0
-19 -20 21 -22 -1 2 -3 -4 35 0
-19 -20 21 -22 -1 -2 3 4 23 0
-19 -20 21 -22 -1 -2 3 -4 23 0
